Route #1: 2 27 47 65 49 63
Route #2: 5 30 37 70 29 75
Route #3: 57 7 32 76 73 51 8
Route #4: 22 71 15 12 34 46 45
Route #5: 31 3 20 54 61 50 39
Route #6: 48 13 33 55 35 59 4 19
Route #7: 28 74 9 36 14 41 62 6 60 66
Route #8: 42 16 18 25 10 68 53
Route #9: 40 64 11 26 44 23 77 1 52 24
Route #10: 21 43 69 67 56 38 58 72 17
Cost 1291